
Gurobi 13.0.2 (win64) logging started Thu Jul 23 08:23:28 2026

Set parameter LogFile to value "E:\codes\ExactEBRP\results\gf_cplex_equivalent_gurobi_replica_round28\runs\stage3__high_imbalance_seed3202__c2_paper__300s\external\native_logs\L2.0.0.1.0.1.0.0.1_terminal_mip.gurobi.log"
Gurobi Optimizer version 13.0.2 build v13.0.2rc1 (win64 - Windows 10.0 (19045.2))

CPU model: 12th Gen Intel(R) Core(TM) i7-12700KF, instruction set [SSE2|AVX|AVX2]
Thread count: 12 physical cores, 20 logical processors, using up to 1 threads

Non-default parameters:
TimeLimit  6.0403564899999992e+01
MIPGap  0
MIPGapAbs  0
LogToConsole  0
Threads  1

Optimize a model with 11895 rows, 3372 columns and 67322 nonzeros (Min)
Model fingerprint: 0xa03ae259
Model has 21 linear objective coefficients
Variable types: 1683 continuous, 1689 integer (1489 binary)
Coefficient statistics:
  Matrix range     [1e-02, 2e+04]
  Objective range  [1e-02, 1e+00]
  Bounds range     [5e-01, 2e+03]
  RHS range        [5e-01, 5e+04]

Presolve removed 2401 rows and 94 columns
Presolve time: 0.19s
Presolved: 9494 rows, 3278 columns, 58007 nonzeros
Variable types: 1627 continuous, 1651 integer (1466 binary)

Root relaxation: objective 1.612123e+00, 3446 iterations, 0.16 seconds (0.41 work units)

    Nodes    |    Current Node    |     Objective Bounds      |     Work
 Expl Unexpl |  Obj  Depth IntInf | Incumbent    BestBd   Gap | It/Node Time

     0     0    1.61212    0  222          -    1.61212      -     -    0s
     0     0    1.65129    0  282          -    1.65129      -     -    0s
     0     0    1.68019    0  277          -    1.68019      -     -    1s
     0     0    1.68107    0  271          -    1.68107      -     -    1s
     0     0    1.69027    0  322          -    1.69027      -     -    1s
     0     0    1.69197    0  311          -    1.69197      -     -    1s
     0     0    1.70355    0  331          -    1.70355      -     -    2s
     0     0    1.70644    0  346          -    1.70644      -     -    2s
     0     0    1.71287    0  320          -    1.71287      -     -    2s
     0     0    1.71357    0  326          -    1.71357      -     -    2s
     0     0    1.71975    0  343          -    1.71975      -     -    3s
     0     0    1.72061    0  360          -    1.72061      -     -    3s
     0     0    1.72341    0  314          -    1.72341      -     -    4s
     0     0    1.72410    0  328          -    1.72410      -     -    4s
     0     0    1.72443    0  317          -    1.72443      -     -    4s
     0     0    1.72471    0  339          -    1.72471      -     -    4s
     0     0    1.72503    0  344          -    1.72503      -     -    5s
     0     0    1.72514    0  354          -    1.72514      -     -    5s
     0     0    1.72618    0  316          -    1.72618      -     -    5s
     0     0    1.72645    0  328          -    1.72645      -     -    6s
     0     0    1.72669    0  341          -    1.72669      -     -    6s
     0     0    1.72675    0  322          -    1.72675      -     -    6s
     0     0    1.72697    0  326          -    1.72697      -     -    7s
     0     0    1.72708    0  344          -    1.72708      -     -    7s
     0     0    1.72741    0  296          -    1.72741      -     -    7s
     0     0    1.72750    0  335          -    1.72750      -     -    8s
     0     0    1.72767    0  295          -    1.72767      -     -    8s
     0     0    1.72768    0  380          -    1.72768      -     -    8s
     0     0    1.72782    0  355          -    1.72782      -     -    8s
     0     0    1.72785    0  355          -    1.72785      -     -    9s
     0     0    1.72789    0  335          -    1.72789      -     -    9s
     0     0    1.72789    0  335          -    1.72789      -     -    9s
     0     0    1.72789    0  329          -    1.72789      -     -    9s
     0     2    1.72790    0  328          -    1.72790      -     -   10s
    44    36    1.74359   34  311          -    1.72790      -   584   15s
   108    82    1.73776   10  262          -    1.73108      -   387   20s
   213   151 infeasible    6               -    1.73319      -   330   25s
   258   129 infeasible   12               -    1.74468      -   395   30s
   378    11 infeasible   73               -    1.78022      -   384   35s

Cutting planes:
  Learned: 15
  Cover: 68
  Implied bound: 185
  Clique: 7
  MIR: 229
  StrongCG: 7
  Flow cover: 136
  GUB cover: 2
  Zero half: 2
  Network: 23
  RLT: 5
  Relax-and-lift: 54
  BQP: 3

Explored 390 nodes (189322 simplex iterations) in 35.23 seconds (75.66 work units)
Thread count was 1 (of 20 available processors)

Solution count 0

Model is infeasible
Best objective -, best bound -, gap -

User-callback calls 6984, time in user-callback 0.00 sec
